73 23 15 40 20 20 30 20 20 40 20 40 40 40 20 20 30 40 200 200 200 200 200 200 200 200
2.00 3.00 3.00 4.00 5.00 5.00 7.00 7.00 10.00 10.00 26.00 24.00 28.00 27.00 30.00 27.00 30.00 32.00 23.00 21.00 23.00 21.00 26.00 25.00 23.00 27.00 25.00 30.00 28.00 48.00 44.00 46.00 43.00 51.00 46.00 51.00 53.00 50.00 39.00 37.00 37.00 35.00 40.00 40.00 39.00 36.00 41.00 37.00 40.00 18.00 70.00 50.00 45.00 2.00 47.00 47.00 73.00 47.00 69.00 80.00 68.00 46.00 46.00 27.00 76.00
5.00 3.00 5.00 5.00 6.00 7.00 7.00 10.00 10.00 25.00 23.00 27.00 26.00 29.00 27.00 30.00 31.00 25.00 23.00 24.00 22.00 28.00 26.00 25.00 28.00 26.00 32.00 29.00 49.00 46.00 47.00 44.00 53.00 47.00 52.00 54.00 51.00 41.00 39.00 39.00 37.00 42.00 42.00 40.00 38.00 43.00 38.00 42.00 20.00 72.00 51.00 45.00 0.00 46.00 46.00 75.00 47.00 71.00 82.00 70.00 47.00 46.00 29.00 78.00
2.00 1.00 3.00 2.00 4.00 5.00 7.00 7.00 25.00 21.00 27.00 26.00 29.00 25.00 28.00 30.00 20.00 18.00 19.00 17.00 23.00 22.00 20.00 23.00 21.00 27.00 24.00 44.00 41.00 42.00 39.00 48.00 42.00 47.00 49.00 46.00 36.00 34.00 35.00 32.00 37.00 37.00 36.00 33.00 38.00 34.00 37.00 16.00 67.00 46.00 42.00 5.00 45.00 44.00 70.00 43.00 67.00 77.00 66.00 43.00 44.00 25.00 73.00
3.00 2.00 2.00 4.00 4.00 7.00 7.00 24.00 21.00 26.00 25.00 27.00 25.00 27.00 29.00 21.00 20.00 21.00 19.00 24.00 23.00 21.00 24.00 23.00 28.00 25.00 45.00 42.00 44.00 41.00 49.00 43.00 48.00 50.00 47.00 38.00 36.00 37.00 34.00 39.00 39.00 37.00 35.00 40.00 35.00 39.00 18.00 69.00 47.00 42.00 3.00 44.00 44.00 72.00 44.00 69.00 79.00 68.00 43.00 43.00 27.00 75.00
4.00 2.00 5.00 6.00 7.00 8.00 26.00 22.00 28.00 26.00 29.00 26.00 28.00 30.00 19.00 17.00 19.00 17.00 22.00 21.00 19.00 23.00 21.00 26.00 24.00 43.00 40.00 42.00 39.00 47.00 42.00 47.00 48.00 46.00 35.00 33.00 34.00 31.00 36.00 37.00 35.00 32.00 37.00 33.00 36.00 15.00 66.00 46.00 42.00 5.00 45.00 45.00 70.00 43.00 66.00 76.00 65.00 42.00 44.00 24.00 72.00
3.00 2.00 2.00 5.00 5.00 21.00 18.00 24.00 22.00 25.00 22.00 25.00 27.00 21.00 19.00 20.00 18.00 24.00 22.00 20.00 24.00 22.00 27.00 24.00 45.00 41.00 43.00 40.00 48.00 42.00 47.00 49.00 46.00 39.00 37.00 37.00 34.00 39.00 40.00 38.00 35.00 40.00 36.00 39.00 19.00 70.00 46.00 40.00 5.00 42.00 42.00 73.00 42.00 69.00 79.00 69.00 42.00 41.00 28.00 75.00
2.00 4.00 5.00 5.00 24.00 20.00 26.00 24.00 27.00 23.00 26.00 28.00 18.00 17.00 18.00 16.00 21.00 20.00 18.00 22.00 20.00 25.00 22.00 43.00 39.00 41.00 38.00 46.00 40.00 46.00 47.00 45.00 36.00 34.00 34.00 31.00 36.00 37.00 35.00 32.00 37.00 33.00 36.00 16.00 67.00 44.00 40.00 6.00 43.00 43.00 70.00 41.00 66.00 76.00 66.00 41.00 42.00 25.00 72.00
2.00 3.00 3.00 21.00 17.00 23.00 21.00 24.00 21.00 24.00 25.00 19.00 17.00 18.00 16.00 22.00 20.00 18.00 21.00 19.00 25.00 22.00 43.00 39.00 41.00 37.00 46.00 40.00 45.00 47.00 44.00 38.00 36.00 36.00 33.00 38.00 38.00 36.00 33.00 39.00 34.00 37.00 18.00 68.00 43.00 38.00 7.00 40.00 40.00 71.00 40.00 68.00 77.00 68.00 39.00 39.00 27.00 73.00
5.00 3.00 19.00 16.00 21.00 20.00 23.00 20.00 23.00 25.00 21.00 19.00 20.00 18.00 23.00 22.00 19.00 23.00 21.00 26.00 23.00 44.00 41.00 42.00 39.00 48.00 41.00 46.00 48.00 45.00 40.00 38.00 38.00 35.00 40.00 40.00 38.00 35.00 41.00 36.00 39.00 20.00 70.00 44.00 38.00 7.00 40.00 39.00 73.00 41.00 70.00 79.00 70.00 40.00 39.00 29.00 75.00
3.00 21.00 15.00 23.00 20.00 24.00 19.00 21.00 24.00 16.00 14.00 15.00 13.00 18.00 17.00 14.00 18.00 16.00 21.00 18.00 39.00 36.00 37.00 34.00 43.00 36.00 42.00 43.00 40.00 36.00 34.00 34.00 31.00 36.00 36.00 34.00 31.00 36.00 31.00 35.00 16.00 66.00 40.00 35.00 10.00 38.00 38.00 68.00 37.00 66.00 74.00 66.00 36.00 37.00 26.00 70.00
18.00 14.00 20.00 18.00 21.00 18.00 20.00 22.00 19.00 17.00 18.00 15.00 21.00 19.00 17.00 20.00 18.00 24.00 20.00 42.00 38.00 39.00 36.00 45.00 38.00 43.00 45.00 42.00 39.00 37.00 37.00 34.00 39.00 39.00 37.00 34.00 39.00 34.00 38.00 19.00 69.00 41.00 35.00 10.00 37.00 37.00 71.00 38.00 69.00 76.00 69.00 37.00 36.00 29.00 73.00
10.00 3.00 7.00 5.00 12.00 14.00 11.00 35.00 33.00 33.00 30.00 35.00 33.00 30.00 33.00 30.00 35.00 30.00 52.00 47.00 48.00 43.00 53.00 44.00 50.00 51.00 47.00 55.00 53.00 53.00 50.00 55.00 55.00 53.00 50.00 55.00 50.00 53.00 38.00 85.00 46.00 28.00 25.00 25.00 25.00 85.00 39.00 85.00 88.00 86.00 38.00 25.00 48.00 86.00
10.00 5.00 10.00 4.00 7.00 8.00 26.00 24.00 23.00 20.00 25.00 23.00 20.00 23.00 20.00 25.00 20.00 41.00 37.00 37.00 33.00 43.00 34.00 40.00 41.00 37.00 46.00 44.00 44.00 41.00 46.00 45.00 43.00 40.00 45.00 40.00 43.00 30.00 75.00 36.00 22.00 23.00 23.00 23.00 75.00 30.00 75.00 77.00 77.00 29.00 22.00 41.00 76.00
5.00 2.00 10.00 12.00 8.00 35.00 33.00 33.00 30.00 35.00 33.00 30.00 33.00 30.00 35.00 30.00 51.00 46.00 47.00 42.00 52.00 43.00 49.00 50.00 45.00 56.00 54.00 54.00 51.00 55.00 55.00 53.00 50.00 55.00 50.00 53.00 39.00 85.00 44.00 26.00 27.00 22.00 22.00 85.00 38.00 85.00 87.00 87.00 36.00 22.00 49.00 85.00
5.00 5.00 7.00 5.00 31.00 29.00 29.00 26.00 30.00 28.00 25.00 28.00 25.00 30.00 25.00 46.00 41.00 41.00 37.00 47.00 38.00 43.00 44.00 40.00 52.00 50.00 49.00 46.00 51.00 50.00 49.00 46.00 50.00 45.00 48.00 36.00 80.00 39.00 21.00 26.00 20.00 20.00 80.00 32.00 80.00 82.00 82.00 31.00 20.00 46.00 80.00
10.00 11.00 7.00 36.00 34.00 33.00 31.00 35.00 33.00 30.00 33.00 30.00 35.00 30.00 50.00 46.00 46.00 41.00 52.00 42.00 48.00 49.00 44.00 57.00 55.00 54.00 51.00 56.00 55.00 53.00 50.00 55.00 50.00 53.00 40.00 85.00 43.00 24.00 29.00 20.00 20.00 85.00 36.00 85.00 87.00 87.00 35.00 20.00 50.00 85.00
3.00 5.00 27.00 25.00 25.00 22.00 25.00 24.00 21.00 23.00 20.00 25.00 20.00 40.00 35.00 36.00 31.00 42.00 32.00 38.00 39.00 34.00 48.00 46.00 45.00 42.00 47.00 46.00 44.00 41.00 46.00 41.00 43.00 33.00 75.00 34.00 18.00 27.00 19.00 19.00 75.00 27.00 75.00 76.00 78.00 26.00 18.00 43.00 75.00
5.00 29.00 27.00 26.00 23.00 26.00 25.00 22.00 24.00 21.00 25.00 20.00 40.00 35.00 35.00 30.00 41.00 31.00 37.00 38.00 33.00 49.00 47.00 46.00 43.00 48.00 47.00 45.00 42.00 46.00 42.00 44.00 35.00 76.00 32.00 15.00 30.00 17.00 16.00 75.00 25.00 76.00 76.00 79.00 24.00 15.00 45.00 75.00
33.00 31.00 30.00 28.00 31.00 29.00 26.00 29.00 26.00 30.00 25.00 45.00 40.00 40.00 35.00 46.00 36.00 42.00 42.00 38.00 53.00 52.00 51.00 48.00 52.00 52.00 50.00 47.00 51.00 46.00 49.00 39.00 81.00 37.00 17.00 31.00 15.00 15.00 80.00 30.00 81.00 81.00 84.00 28.00 15.00 49.00 80.00
2.00 2.00 5.00 5.00 5.00 7.00 7.00 8.00 10.00 11.00 25.00 22.00 24.00 22.00 29.00 25.00 29.00 31.00 30.00 20.00 18.00 18.00 15.00 20.00 20.00 18.00 15.00 20.00 15.00 18.00 10.00 50.00 30.00 36.00 25.00 44.00 43.00 51.00 30.00 50.00 57.00 51.00 30.00 42.00 17.00 54.00
2.00 3.00 5.00 5.00 5.00 7.00 7.00 10.00 10.00 26.00 23.00 25.00 23.00 30.00 25.00 30.00 32.00 30.00 22.00 20.00 20.00 17.00 22.00 22.00 20.00 17.00 22.00 17.00 20.00 10.00 52.00 30.00 35.00 23.00 43.00 42.00 53.00 30.00 52.00 59.00 53.00 30.00 41.00 18.00 56.00
3.00 3.00 3.00 4.00 5.00 5.00 8.00 8.00 24.00 21.00 23.00 21.00 28.00 24.00 28.00 30.00 28.00 23.00 21.00 20.00 17.00 22.00 22.00 20.00 17.00 22.00 17.00 20.00 12.00 52.00 28.00 33.00 24.00 41.00 41.00 53.00 28.00 52.00 58.00 53.00 28.00 39.00 20.00 55.00
5.00 4.00 3.00 5.00 5.00 9.00 8.00 26.00 23.00 25.00 22.00 30.00 25.00 30.00 31.00 29.00 25.00 24.00 23.00 20.00 25.00 25.00 23.00 20.00 25.00 20.00 23.00 13.00 55.00 29.00 32.00 22.00 39.00 38.00 56.00 28.00 55.00 61.00 56.00 28.00 37.00 22.00 58.00
2.00 5.00 2.00 5.00 5.00 7.00 21.00 18.00 19.00 17.00 25.00 20.00 25.00 26.00 25.00 22.00 20.00 19.00 17.00 21.00 20.00 18.00 15.00 20.00 15.00 18.00 15.00 50.00 25.00 32.00 28.00 41.00 40.00 50.00 25.00 50.00 55.00 52.00 25.00 39.00 21.00 52.00
3.00 2.00 3.00 5.00 5.00 22.00 19.00 20.00 18.00 26.00 21.00 25.00 27.00 25.00 24.00 22.00 21.00 18.00 23.00 22.00 20.00 17.00 22.00 17.00 20.00 15.00 52.00 25.00 31.00 26.00 39.00 39.00 52.00 25.00 52.00 57.00 54.00 25.00 37.00 22.00 54.00
3.00 2.00 7.00 5.00 25.00 21.00 22.00 19.00 28.00 22.00 27.00 29.00 26.00 26.00 25.00 24.00 21.00 25.00 25.00 23.00 20.00 25.00 20.00 23.00 15.00 55.00 26.00 29.00 25.00 37.00 36.00 55.00 25.00 55.00 60.00 57.00 25.00 35.00 24.00 57.00
3.00 3.00 4.00 21.00 17.00 19.00 16.00 24.00 19.00 24.00 25.00 24.00 25.00 23.00 22.00 19.00 23.00 23.00 21.00 18.00 22.00 17.00 20.00 17.00 52.00 23.00 29.00 28.00 38.00 37.00 52.00 23.00 52.00 56.00 55.00 23.00 36.00 24.00 53.00
5.00 3.00 23.00 19.00 21.00 18.00 26.00 20.00 25.00 27.00 25.00 27.00 25.00 25.00 22.00 26.00 25.00 24.00 21.00 25.00 20.00 23.00 17.00 55.00 24.00 28.00 26.00 36.00 35.00 55.00 23.00 55.00 59.00 58.00 23.00 33.00 26.00 56.00
5.00 18.00 14.00 15.00 13.00 21.00 15.00 20.00 22.00 20.00 25.00 23.00 22.00 19.00 23.00 22.00 20.00 18.00 21.00 17.00 18.00 20.00 50.00 20.00 29.00 32.00 38.00 37.00 50.00 20.00 50.00 53.00 54.00 20.00 36.00 26.00 51.00
22.00 18.00 19.00 15.00 25.00 18.00 23.00 25.00 22.00 29.00 27.00 26.00 23.00 27.00 26.00 25.00 22.00 26.00 21.00 23.00 20.00 55.00 21.00 25.00 29.00 34.00 33.00 55.00 20.00 55.00 58.00 59.00 20.00 32.00 28.00 56.00
5.00 5.00 10.00 5.00 11.00 9.00 11.00 14.00 25.00 25.00 23.00 23.00 22.00 20.00 20.00 20.00 18.00 18.00 16.00 33.00 39.00 14.00 37.00 49.00 49.00 48.00 35.00 21.00 39.00 36.00 47.00 23.00 46.00 35.00 35.00
2.00 5.00 7.00 7.00 8.00 10.00 11.00 26.00 26.00 24.00 23.00 24.00 22.00 21.00 20.00 20.00 18.00 17.00 31.00 43.00 11.00 32.00 46.00 44.00 43.00 40.00 17.00 44.00 41.00 51.00 18.00 41.00 35.00 40.00
5.00 5.00 5.00 6.00 8.00 9.00 28.00 28.00 26.00 25.00 26.00 24.00 23.00 22.00 22.00 20.00 19.00 33.00 44.00 10.00 32.00 47.00 43.00 42.00 40.00 16.00 45.00 40.00 52.00 17.00 40.00 37.00 40.00
10.00 3.00 7.00 9.00 8.00 30.00 29.00 28.00 26.00 28.00 26.00 25.00 24.00 25.00 22.00 22.00 32.00 49.00 8.00 27.00 44.00 38.00 37.00 45.00 12.00 49.00 45.00 56.00 13.00 35.00 37.00 45.00
10.00 5.00 7.00 11.00 30.00 30.00 28.00 28.00 27.00 25.00 25.00 25.00 23.00 23.00 21.00 38.00 41.00 12.00 36.00 53.00 48.00 47.00 36.00 19.00 42.00 35.00 50.00 21.00 45.00 40.00 35.00
5.00 7.00 5.00 33.00 32.00 30.00 29.00 30.00 29.00 28.00 26.00 27.00 25.00 24.00 35.00 50.00 5.00 26.00 47.00 38.00 37.00 46.00 10.00 51.00 45.00 58.00 12.00 35.00 40.00 45.00
2.00 5.00 34.00 33.00 32.00 31.00 31.00 29.00 29.00 28.00 27.00 26.00 25.00 39.00 47.00 6.00 31.00 52.00 43.00 42.00 42.00 14.00 48.00 40.00 56.00 16.00 40.00 43.00 40.00
5.00 36.00 35.00 33.00 33.00 33.00 31.00 31.00 30.00 29.00 28.00 27.00 41.00 48.00 6.00 31.00 54.00 43.00 42.00 43.00 14.00 49.00 40.00 58.00 16.00 40.00 45.00 41.00
38.00 37.00 35.00 34.00 35.00 33.00 32.00 31.00 31.00 29.00 29.00 40.00 53.00 1.00 26.00 51.00 38.00 37.00 47.00 9.00 53.00 45.00 61.00 11.00 35.00 45.00 45.00
2.00 2.00 5.00 3.00 5.00 5.00 7.00 7.00 8.00 9.00 20.00 30.00 38.00 53.00 41.00 63.00 62.00 35.00 42.00 30.00 45.00 30.00 43.00 61.00 14.00 39.00
2.00 3.00 3.00 5.00 5.00 5.00 7.00 7.00 9.00 18.00 32.00 37.00 52.00 39.00 61.00 61.00 37.00 41.00 32.00 46.00 32.00 42.00 59.00 13.00 41.00
3.00 2.00 3.00 3.00 4.00 5.00 5.00 7.00 19.00 32.00 35.00 51.00 39.00 60.00 59.00 36.00 39.00 32.00 45.00 33.00 40.00 58.00 15.00 40.00
5.00 5.00 4.00 3.00 7.00 5.00 7.00 16.00 35.00 34.00 48.00 37.00 58.00 57.00 38.00 38.00 35.00 47.00 36.00 39.00 55.00 13.00 42.00
2.00 2.00 5.00 4.00 6.00 6.00 21.00 30.00 35.00 52.00 42.00 61.00 61.00 34.00 40.00 30.00 43.00 31.00 41.00 59.00 17.00 37.00
2.00 5.00 2.00 5.00 4.00 22.00 30.00 34.00 50.00 42.00 60.00 60.00 33.00 38.00 30.00 41.00 32.00 39.00 58.00 18.00 36.00
3.00 2.00 3.00 4.00 20.00 32.00 33.00 49.00 40.00 59.00 58.00 34.00 37.00 32.00 43.00 34.00 38.00 56.00 17.00 38.00
5.00 2.00 5.00 18.00 35.00 31.00 46.00 38.00 56.00 55.00 37.00 35.00 35.00 45.00 37.00 36.00 54.00 16.00 40.00
5.00 2.00 23.00 30.00 32.00 49.00 43.00 59.00 59.00 32.00 36.00 30.00 40.00 33.00 38.00 57.00 20.00 35.00
3.00 19.00 35.00 30.00 45.00 38.00 55.00 54.00 37.00 33.00 35.00 44.00 37.00 35.00 53.00 18.00 39.00
22.00 32.00 29.00 46.00 42.00 57.00 56.00 33.00 34.00 32.00 40.00 35.00 35.00 54.00 21.00 36.00
0 1127
0 1125
0 1129
584 656
0 1130
0 1127
0 1130
1057 1125
0 1125
779 845
0 1126
176 228
0 1115
0 1106
0 1109
358 416
0 1112
0 1110
0 1106
0 1136
0 1135
0 1133
0 1133
0 1131
0 1130
0 1130
263 311
0 1128
0 1126
0 1125
0 1112
0 1114
355 437
0 1113
655 725
0 1110
0 1106
472 532
0 1105
0 1125
0 1127
0 1126
789 849
0 1124
0 1123
0 1125
0 1127
0 1122
1011 1073
0 1123
0 1236
0 1236
0 1236
0 1236
0 1236
0 1236
0 1236
0 1236
0 1236
0 1236
0 1236
0 1236
0 1236
0 1236
0 1236
0 1236
0 1236
0 1236
0 1236
0 1236
0 1236
0 1236
0 1236
51.00 40.00 45.00 20.00 51.00 51.00 55.00 40.00 51.00 63.00 50.00 40.00 50.00 10.00 58.00 0 0 0 0 0 0 0 0
10 30 10 10 10 20 20 20 10 10 10 20 30 10 40 40 20 20 10 10 20 20 10 10 40 10 10 20 10 10 20 30 40 20 10 10 20 30 20 10 10 20 10 10 10 30 10 10 10 10